20
85.0
0 19 9.7 0.28
1 18 10.26 1.89
2 17 8.51 1.89
3 16 9.06 1.89
4 15 8.57 0.31
5 14 8.61 0.31
6 13 11.56 1.9
7 12 9.46 1.87
8 11 9.57 0.28
9 10 9.06 1.94
10 9 8.7 0.31
11 8 10.77 0.32
12 7 10.57 1.74
13 6 9.48 0.26
14 5 7.05 1.86
15 4 8.99 1.79
16 3 6.95 1.74
17 2 6.19 2.18
18 1 12.09 1.92
